&bands
 prefix='gaas', outdir='./out', filband='gaas.bands.dat'
/
