&projwfc
 prefix='gaas', outdir='./out', filproj='gaas.fat', lsym=.false.
/
