&bands
    prefix = 'graphene'
    outdir = './out'
    filband = 'graphene.bands.dat'
/
