&bands
    prefix  = 'bn'
    outdir  = './out'
    filband = 'bn.bands'
/
