&control
    calculation = 'vc-relax'
    prefix      = 'graphene'
    outdir      = './out'
    pseudo_dir  = '../../pseudos'
    verbosity   = 'high'
    tprnfor = .true.
    tstress = .true.
    forc_conv_thr = 1.0d-4
/
&system
    ibrav = 0
    nat = 2
    ntyp = 1
    ecutwfc = 50.0
    ecutrho = 400.0
    assume_isolated = '2D'
    occupations = 'smearing'
    smearing = 'mv'
    degauss = 0.01
/
&electrons
    conv_thr = 1.0d-18
    mixing_beta = 0.7
/
&ions
    ion_dynamics = 'bfgs'
/
&cell
    cell_dofree = '2Dxy'          ! relax in-plane lattice only; keep vacuum c fixed
    press = 0.0d0
/
ATOMIC_SPECIES
  C 12.011 C.pbe-n-kjpaw_psl.1.0.0.UPF
CELL_PARAMETERS angstrom
   2.460000   0.000000   0.000000
  -1.230000   2.130000   0.000000
   0.000000   0.000000  20.000000
ATOMIC_POSITIONS crystal
  C 0.000000000 0.000000000 0.0
  C 0.333333333 0.666666667 0.0
K_POINTS automatic
  12 12 1 0 0 0
