&control
    calculation = 'nscf'
    prefix      = 'nbse2_cdw'
    outdir      = './out_cdw'
    pseudo_dir  = '../../pseudos'
    verbosity   = 'high'
/
&system
    ibrav = 0
    nat = 27
    ntyp = 2
    ecutwfc = 60.0
    ecutrho = 480.0
    assume_isolated = '2D'
    occupations = 'smearing'
    smearing = 'mv'
    degauss = 0.01
    nbnd = 250
/
&electrons
    conv_thr = 1.0d-10
    mixing_beta = 0.7
/
ATOMIC_SPECIES
  Nb 92.90638 Nb.pbe-spn-kjpaw_psl.1.0.0.UPF
  Se 78.971   Se.pbe-n-kjpaw_psl.1.0.0.UPF
CELL_PARAMETERS angstrom
     10.418601543     0.000000000     0.000000000
     -5.209300771     9.022773608     0.000000000
      0.000000000     0.000000000    22.000000000
ATOMIC_POSITIONS angstrom
  Nb     -0.033378699     1.988524491     0.000000000
  Se      1.714647103     0.998790496     1.679678171
  Se      1.714647103     0.998790496    -1.679678171
  Nb     -1.738799989     5.067203602     0.000000000
  Se     -0.016502795     3.997286352     1.679694654
  Se     -0.016502795     3.997286352    -1.679694654
  Nb     -3.429143667     7.995040194     0.000000000
  Se     -1.738801736     7.019072793     1.718140656
  Se     -1.738801736     7.019072793    -1.718140656
  Nb      3.470507507     1.918025269     0.000000000
  Se      5.226268867     0.998770246     1.679741166
  Se      5.226268867     0.998770246    -1.679741166
  Nb      1.657495592     5.058206707     0.000000000
  Se      3.470514626     4.011504761     1.611887610
  Se      3.470514626     4.011504761    -1.611887610
  Nb     -0.048452823     7.995061679     0.000000000
  Se      1.739297688     7.038430706     1.679672910
  Se      1.739297688     7.038430706    -1.679672910
  Nb      6.974270821     1.988514188     0.000000000
  Se      8.679755257     1.003912502     1.716270692
  Se      8.679755257     1.003912502    -1.716270692
  Nb      5.283529233     5.058196999     0.000000000
  Se      6.957539392     3.997250981     1.679687261
  Se      6.957539392     3.997250981    -1.679687261
  Nb      3.470462510     8.057403930     0.000000000
  Se      5.201669868     7.038431317     1.679652729
  Se      5.201669868     7.038431317    -1.679652729
K_POINTS automatic
  8 8 1 0 0 0
