&control
    calculation   = 'vc-relax'
    prefix        = 'nbse2'
    outdir        = './out'
    pseudo_dir    = '../../pseudos'
    verbosity     = 'high'
    forc_conv_thr = 1.0d-5
    etot_conv_thr = 1.0d-6
/
&system
    ibrav           = 0
    nat             = 3
    ntyp            = 2
    ecutwfc         = 60.0
    ecutrho         = 480.0
    assume_isolated = '2D'
    occupations     = 'smearing'
    smearing        = 'mv'
    degauss         = 0.02
/
&electrons
    conv_thr    = 1.0d-18
    mixing_beta = 0.7
/
&ions
    ion_dynamics = 'bfgs'
/
&cell
    cell_dynamics = 'bfgs'
    cell_dofree   = '2Dxy'
/
ATOMIC_SPECIES
  Nb 92.90638 Nb.pbe-spn-kjpaw_psl.1.0.0.UPF
  Se 78.971   Se.pbe-n-kjpaw_psl.1.0.0.UPF
CELL_PARAMETERS angstrom
   3.480000000   0.000000000   0.000000000
  -1.740000000   3.013371920   0.000000000
   0.000000000   0.000000000  22.000000000
ATOMIC_POSITIONS crystal
  Nb  0.333333333  0.666666667   0.000000000
  Se  0.666666667  0.333333333   0.076136364
  Se  0.666666667  0.333333333  -0.076136364
K_POINTS automatic
  16 16 1 0 0 0
