&control
    calculation = 'relax'
    prefix      = 'nbse2_3x3'
    outdir      = './out'
    pseudo_dir  = '../pseudos'
    verbosity   = 'high'
    forc_conv_thr = 1.0d-5
    etot_conv_thr = 1.0d-6
/
&system
    ibrav = 0
    nat = 27
    ntyp = 2
    ecutwfc = 60.0
    ecutrho = 480.0
    assume_isolated = '2D'
    occupations = 'smearing'
    smearing = 'mv'
    degauss = 0.01
/
&electrons
    conv_thr = 1.0d-12
    mixing_beta = 0.7
/
&ions
    ion_dynamics = 'bfgs'
/
ATOMIC_SPECIES
  Nb 92.90638 Nb.pbe-spn-kjpaw_psl.1.0.0.UPF
  Se 78.971   Se.pbe-n-kjpaw_psl.1.0.0.UPF
CELL_PARAMETERS angstrom
     10.418601543     0.000000000     0.000000000
     -5.209300771     9.022773608     0.000000000
      0.000000000     0.000000000    22.000000000
ATOMIC_POSITIONS angstrom
  Nb     -0.086602434     1.955060618     0.000000000
  Se      1.753701782     1.012494983     1.628510016
  Se      1.753701782     1.012494983    -1.628510016
  Nb     -1.814620049     4.967452365     0.000000000
  Se     -0.003677778     4.007986870     1.654714518
  Se     -0.003677778     4.007986870    -1.654714518
  Nb     -3.464451205     8.025043751     0.000000000
  Se     -1.757379560     7.005613490     1.707123522
  Se     -1.757379560     7.005613490    -1.707123522
  Nb      3.551053640     2.050260441     0.000000000
  Se      5.212978549     1.004665135     1.707123522
  Se      5.212978549     1.004665135    -1.707123522
  Nb      1.728017615     5.007851460     0.000000000
  Se      3.493813150     4.022220920     1.654714518
  Se      3.493813150     4.022220920    -1.654714518
  Nb     -0.086602434     7.970243023     0.000000000
  Se      1.753701782     7.027677389     1.628510016
  Se      1.753701782     7.027677389    -1.628510016
  Nb      6.954150338     2.009861346     0.000000000
  Se      8.661221983     0.990431085     1.707123522
  Se      8.661221983     0.990431085    -1.707123522
  Nb      5.295903206     5.062652188     0.000000000
  Se      6.928466171     4.000157021     1.733328024
  Se      6.928466171     4.000157021    -1.733328024
  Nb      3.551053640     8.065442847     0.000000000
  Se      5.212978549     7.019847540     1.707123522
  Se      5.212978549     7.019847540    -1.707123522
K_POINTS automatic
  4 4 1 0 0 0
