&control
    calculation = 'relax'
    prefix      = 'nbse2_3x3'
    outdir      = './out'
    pseudo_dir  = '../pseudos'
    verbosity   = 'high'
    forc_conv_thr = 1.0d-5
    etot_conv_thr = 1.0d-6
/
&system
    ibrav = 0
    nat = 27
    ntyp = 2
    ecutwfc = 60.0
    ecutrho = 480.0
    assume_isolated = '2D'
    occupations = 'smearing'
    smearing = 'mv'
    degauss = 0.01
/
&electrons
    conv_thr = 1.0d-12
    mixing_beta = 0.7
/
&ions
    ion_dynamics = 'bfgs'
/
ATOMIC_SPECIES
  Nb 92.90638 Nb.pbe-spn-kjpaw_psl.1.0.0.UPF
  Se 78.971   Se.pbe-n-kjpaw_psl.1.0.0.UPF
CELL_PARAMETERS angstrom
     10.418601543     0.000000000     0.000000000
     -5.209300771     9.022773608     0.000000000
      0.000000000     0.000000000    22.000000000
ATOMIC_POSITIONS angstrom
  Nb      0.000000000     2.005060802     0.000000000
  Se      1.736433590     1.002530401     1.599072857
  Se      1.736433590     1.002530401    -1.599072857
  Nb     -1.808385851     5.061422669     0.000000000
  Se     -0.006944533     4.010360311     1.654192057
  Se     -0.006944533     4.010360311    -1.654192057
  Nb     -3.498569369     8.066279582     0.000000000
  Se     -1.735936794     7.012981678     1.717657624
  Se     -1.735936794     7.012981678    -1.717657624
  Nb      3.558623534     1.997518455     0.000000000
  Se      5.202225715     1.021424941     1.680919020
  Se      5.202225715     1.021424941    -1.680919020
  Nb      1.700813971     4.984839659     0.000000000
  Se      3.478746648     4.031655260     1.700057631
  Se      3.478746648     4.031655260    -1.700057631
  Nb     -0.075120223     7.954235995     0.000000000
  Se      1.756832022     7.021499162     1.701882848
  Se      1.756832022     7.021499162    -1.701882848
  Nb      6.995223747     1.934519369     0.000000000
  Se      8.662282647     0.999209574     1.680919020
  Se      8.662282647     0.999209574    -1.680919020
  Nb      5.223181865     5.045683525     0.000000000
  Se      6.931723915     3.997035797     1.708201074
  Se      6.931723915     3.997035797    -1.708201074
  Nb      3.483531331     8.092315915     0.000000000
  Se      5.222620801     6.998903573     1.695585412
  Se      5.222620801     6.998903573    -1.695585412
K_POINTS automatic
  4 4 1 0 0 0
