&input
  fildyn = 'nbse2.dyn'
  flfrc  = 'nbse2.fc'
  zasr   = 'simple'
/
