&inputpp
  prefix   = 'nbse2_cdw'
  outdir   = './out_cdw'
  plot_num = 3
  emin     = -5.81
  emax     = -5.51
/
&plot
  iflag = 3
  output_format = 6
  fileout = 'nbse2_cdw.ildos.cube'
/
