&control
    calculation = 'scf'
    prefix      = 'nbse2_ref'
    outdir      = './out_ref'
    pseudo_dir  = '../../pseudos'
    verbosity   = 'high'
/
&system
    ibrav = 0
    nat = 27
    ntyp = 2
    ecutwfc = 60.0
    ecutrho = 480.0
    assume_isolated = '2D'
    occupations = 'smearing'
    smearing = 'mv'
    degauss = 0.01
/
&electrons
    conv_thr = 1.0d-10
    mixing_beta = 0.7
/
ATOMIC_SPECIES
  Nb 92.90638 Nb.pbe-spn-kjpaw_psl.1.0.0.UPF
  Se 78.971   Se.pbe-n-kjpaw_psl.1.0.0.UPF
CELL_PARAMETERS angstrom
     10.418601543     0.000000000     0.000000000
     -5.209300771     9.022773608     0.000000000
      0.000000000     0.000000000    22.000000000
ATOMIC_POSITIONS angstrom
  Nb     -0.000000000     2.005060802     0.000000000
  Se      1.736433590     1.002530401     1.680919020
  Se      1.736433590     1.002530401    -1.680919020
  Nb     -1.736433590     5.012652005     0.000000000
  Se     -0.000000000     4.010121604     1.680919020
  Se     -0.000000000     4.010121604    -1.680919020
  Nb     -3.472867181     8.020243207     0.000000000
  Se     -1.736433591     7.017712806     1.680919020
  Se     -1.736433591     7.017712806    -1.680919020
  Nb      3.472867181     2.005060802     0.000000000
  Se      5.209300771     1.002530401     1.680919020
  Se      5.209300771     1.002530401    -1.680919020
  Nb      1.736433590     5.012652005     0.000000000
  Se      3.472867181     4.010121604     1.680919020
  Se      3.472867181     4.010121604    -1.680919020
  Nb     -0.000000000     8.020243207     0.000000000
  Se      1.736433590     7.017712806     1.680919020
  Se      1.736433590     7.017712806    -1.680919020
  Nb      6.945734362     2.005060802     0.000000000
  Se      8.682167952     1.002530401     1.680919020
  Se      8.682167952     1.002530401    -1.680919020
  Nb      5.209300771     5.012652005     0.000000000
  Se      6.945734362     4.010121604     1.680919020
  Se      6.945734362     4.010121604    -1.680919020
  Nb      3.472867181     8.020243207     0.000000000
  Se      5.209300771     7.017712806     1.680919020
  Se      5.209300771     7.017712806    -1.680919020
K_POINTS automatic
  4 4 1 0 0 0
