&input
    fildyn = 'gaas.dyn'
    flfrc  = 'gaas.fc'
    zasr   = 'simple'
/
